letting n =  10
letting blocks =  [[1, 1], [1, 2], [1, 3], [1, 8], [1, 10], [2, 6], [2, 9], [3, 1], [3, 4], [3, 5], [3, 6], [3, 7], [4, 3], [4, 5], [4, 6], [4, 10], [5, 1], [5, 5], [5, 6], [5, 10], [6, 3], [6, 4], [6, 5], [6, 8], [7, 1], [7, 5], [7, 10], [8, 6], [8, 9], [9, 3], [9, 8], [10, 4], [10, 5], [10, 6]]
